%
% From the OPL model sched_intro.model
% (with the precedences)
% Cf http://www.hakank.org/minizinc/building_a_house.mzn
%
% Compare with the output from
%    http://www.hakank.org/minizinc/building_a_house.mzn
% where the first time is 1, not 0 as in this model:
% makespan: 91
% z: 91
% masonry: 1 - 35 --> 36
% carpentry: 36 - 15 --> 51
% plumbing: 36 - 40 --> 76
% ceiling: 36 - 15 --> 51
% roofing: 51 - 5 --> 56
% painting: 51 - 10 --> 61
% windows: 56 - 5 --> 61
% facade: 76 - 10 --> 86
% garden: 76 - 5 --> 81
% moving: 86 - 5 --> 91
%
% Note: This problem is much harder _without_ the precedences:
% It takes 0.2 seconds with precedences, and about 24 seconds without.
%
num_jobs = 10;
num_workers = 3;
duration =  [35,15,40,15, 5,10, 5,10, 5, 5];
resource =  [ 1, 1, 1, 1, 1, 1, 1, 1, 1, 1];
max_time = 100; % optimal: 90  (50 without the precedences)
allow_idle = true;
collect_workers = false;
do_precendences = true;
num_precedences = 14;
precedences = array2d(1..num_precedences, 1..2, 
[
1,2,  % masonry,   carpentry, 
1,3,  % masonry,   plumbing, 
1,4,  % masonry,   ceiling,
2,5,  % carpentry, roofing,
4,6,  % ceiling,   painting,
5,7,  % roofing,   windows,
5,8,  % roofing,   facade,
3,8,  % plumbing,  facade,
5,9,  % roofing,   garden,
3,9,  % plumbing,  garden,
7,10, % windows,   moving,
8,10, % facade,    moving,
9,10, % garden,    moving,
6,10, % painting,  moving
]);
